Route #1: 25 4 18 26 47 49 9 37
Route #2: 2 40 7 48 34
Route #3: 27 33 36 43 16 11 20
Route #4: 32 5 24 12
Route #5: 39 1 28 29 19 30
Route #6: 44 6 31 14 46 22 38
Route #7: 3 13 23 41 45 35
Route #8: 15 8 17 42 21 10
Cost 1315
Time 0.254688
Tempo = 0.2668114000116475